
  22    4
  10   10   10   10

   0   0   0   0   0   6 2 3 5 6 10 21 
   8  10  10  10  10   4 20 11 8 4 
   1  10  10  10  10   3 11 9 8 
   8  10  10  10  10   4 19 15 13 7 
   8  10  10  10  10   2 12 7 
  10  10  10  10  10   2 14 7 
   3  10  10  10  10   3 18 17 16 
   2  10  10  10  10   3 18 16 15 
   2  10  10  10  10   3 19 17 15 
   2  10  10  10  10   2 17 13 
   3  10  10  10  10   2 16 15 
   4  10  10  10  10   2 19 15 
   2  10  10  10  10   1 16 
   7  10  10  10  10   1 15 
   3  10  10  10  10   1 22
   9  10  10  10  10   1 22
   1  10  10  10  10   1 22
   7  10  10  10  10   1 22
   2  10  10  10  10   1 22
   5  10  10  10  10   1 22
   2  10  10  10  10   1 22
   0   0   0   0   0   0 
